1 2 3 4 0
-1 -2 0
-1 -3 0
-2 -3 0
-1 -4 0
-2 -4 0
-3 -4 0
5 6 7 8 0
-5 -6 0
-5 -7 0
-6 -7 0
-5 -8 0
-6 -8 0
-7 -8 0
9 10 11 12 0
-9 -10 0
-9 -11 0
-10 -11 0
-9 -12 0
-10 -12 0
-11 -12 0
13 14 15 16 0
-13 -14 0
-13 -15 0
-14 -15 0
-13 -16 0
-14 -16 0
-15 -16 0
1 5 9 13 0
-1 -5 0
-1 -9 0
-5 -9 0
-1 -13 0
-5 -13 0
-9 -13 0
2 6 10 14 0
-2 -6 0
-2 -10 0
-6 -10 0
-2 -14 0
-6 -14 0
-10 -14 0
3 7 11 15 0
-3 -7 0
-3 -11 0
-7 -11 0
-3 -15 0
-7 -15 0
-11 -15 0
4 8 12 16 0
-4 -8 0
-4 -12 0
-8 -12 0
-4 -16 0
-8 -16 0
-12 -16 0
-4 -5 17 0
-8 -9 17 0
-12 -13 17 0
-3 -5 18 0
-7 -9 18 0
-11 -13 18 0
-4 -6 19 0
-4 -6 -18 0
-8 -10 19 0
-8 -10 -18 0
-12 -14 19 0
-12 -14 -18 0
-18 19 0
-2 -5 20 0
-6 -9 20 0
-10 -13 20 0
-3 -6 21 0
-3 -6 -20 0
-7 -10 21 0
-7 -10 -20 0
-11 -14 21 0
-11 -14 -20 0
-4 -7 22 0
-4 -7 -21 0
-8 -11 22 0
-8 -11 -21 0
-12 -15 22 0
-12 -15 -21 0
-20 21 0
-21 22 0
-1 -6 23 0
-5 -10 23 0
-9 -14 23 0
-2 -7 24 0
-2 -7 -23 0
-6 -11 24 0
-6 -11 -23 0
-10 -15 24 0
-10 -15 -23 0
-3 -8 25 0
-3 -8 -24 0
-7 -12 25 0
-7 -12 -24 0
-11 -16 25 0
-11 -16 -24 0
-23 24 0
-24 25 0
-1 -7 26 0
-5 -11 26 0
-9 -15 26 0
-2 -8 27 0
-2 -8 -26 0
-6 -12 27 0
-6 -12 -26 0
-10 -16 27 0
-10 -16 -26 0
-26 27 0
-1 -8 28 0
-5 -12 28 0
-9 -16 28 0
-4 -9 29 0
-8 -13 29 0
-3 -9 30 0
-7 -13 30 0
-4 -10 31 0
-4 -10 -30 0
-8 -14 31 0
-8 -14 -30 0
-30 31 0
-2 -9 32 0
-6 -13 32 0
-3 -10 33 0
-3 -10 -32 0
-7 -14 33 0
-7 -14 -32 0
-4 -11 34 0
-4 -11 -33 0
-8 -15 34 0
-8 -15 -33 0
-32 33 0
-33 34 0
-1 -10 35 0
-5 -14 35 0
-2 -11 36 0
-2 -11 -35 0
-6 -15 36 0
-6 -15 -35 0
-3 -12 37 0
-3 -12 -36 0
-7 -16 37 0
-7 -16 -36 0
-35 36 0
-36 37 0
-1 -11 38 0
-5 -15 38 0
-2 -12 39 0
-2 -12 -38 0
-6 -16 39 0
-6 -16 -38 0
-38 39 0
-1 -12 40 0
-5 -16 40 0
-4 -13 41 0
-3 -13 42 0
-4 -14 43 0
-4 -14 -42 0
-42 43 0
-2 -13 44 0
-3 -14 45 0
-3 -14 -44 0
-4 -15 46 0
-4 -15 -45 0
-44 45 0
-45 46 0
-1 -14 47 0
-2 -15 48 0
-2 -15 -47 0
-3 -16 49 0
-3 -16 -48 0
-47 48 0
-48 49 0
-1 -15 50 0
-2 -16 51 0
-2 -16 -50 0
-50 51 0
-1 -16 52 0
p cnf 52 182
